c CNF file corresponding to a (partial) station packing problem.
p cnf 5117 243
1 2 3 4 5 6 7 8 9 10 11 12 13 14 0
-1 -2 0
-1 -3 0
-1 -4 0
-1 -5 0
-1 -6 0
-1 -7 0
-1 -8 0
-1 -9 0
-1 -10 0
-1 -11 0
-1 -12 0
-1 -13 0
-1 -14 0
-2 -3 0
-2 -4 0
-2 -5 0
-2 -6 0
-2 -7 0
-2 -8 0
-2 -9 0
-2 -10 0
-2 -11 0
-2 -12 0
-2 -13 0
-2 -14 0
-3 -4 0
-3 -5 0
-3 -6 0
-3 -7 0
-3 -8 0
-3 -9 0
-3 -10 0
-3 -11 0
-3 -12 0
-3 -13 0
-3 -14 0
-4 -5 0
-4 -6 0
-4 -7 0
-4 -8 0
-4 -9 0
-4 -10 0
-4 -11 0
-4 -12 0
-4 -13 0
-4 -14 0
-5 -6 0
-5 -7 0
-5 -8 0
-5 -9 0
-5 -10 0
-5 -11 0
-5 -12 0
-5 -13 0
-5 -14 0
-6 -7 0
-6 -8 0
-6 -9 0
-6 -10 0
-6 -11 0
-6 -12 0
-6 -13 0
-6 -14 0
-7 -8 0
-7 -9 0
-7 -10 0
-7 -11 0
-7 -12 0
-7 -13 0
-7 -14 0
-8 -9 0
-8 -10 0
-8 -11 0
-8 -12 0
-8 -13 0
-8 -14 0
-9 -10 0
-9 -11 0
-9 -12 0
-9 -13 0
-9 -14 0
-10 -11 0
-10 -12 0
-10 -13 0
-10 -14 0
-11 -12 0
-11 -13 0
-11 -14 0
-12 -13 0
-12 -14 0
-13 -14 0
-10 -5113 0
-7 -5110 0
-3 -5105 0
-5109 -6 0
-5107 -4 0
-8 -5111 0
-5115 -12 0
-5112 -9 0
-11 -5114 0
-1 -5103 0
-5104 -2 0
-14 -5117 0
-5108 -5 0
-5116 -13 0
5101 5102 5103 5104 5105 5106 5107 5108 5109 5110 5111 5112 5113 5114 5115 5116 5117 0
-5101 -5102 0
-5101 -5103 0
-5101 -5104 0
-5101 -5105 0
-5101 -5106 0
-5101 -5107 0
-5101 -5108 0
-5101 -5109 0
-5101 -5110 0
-5101 -5111 0
-5101 -5112 0
-5101 -5113 0
-5101 -5114 0
-5101 -5115 0
-5101 -5116 0
-5101 -5117 0
-5102 -5103 0
-5102 -5104 0
-5102 -5105 0
-5102 -5106 0
-5102 -5107 0
-5102 -5108 0
-5102 -5109 0
-5102 -5110 0
-5102 -5111 0
-5102 -5112 0
-5102 -5113 0
-5102 -5114 0
-5102 -5115 0
-5102 -5116 0
-5102 -5117 0
-5103 -5104 0
-5103 -5105 0
-5103 -5106 0
-5103 -5107 0
-5103 -5108 0
-5103 -5109 0
-5103 -5110 0
-5103 -5111 0
-5103 -5112 0
-5103 -5113 0
-5103 -5114 0
-5103 -5115 0
-5103 -5116 0
-5103 -5117 0
-5104 -5105 0
-5104 -5106 0
-5104 -5107 0
-5104 -5108 0
-5104 -5109 0
-5104 -5110 0
-5104 -5111 0
-5104 -5112 0
-5104 -5113 0
-5104 -5114 0
-5104 -5115 0
-5104 -5116 0
-5104 -5117 0
-5105 -5106 0
-5105 -5107 0
-5105 -5108 0
-5105 -5109 0
-5105 -5110 0
-5105 -5111 0
-5105 -5112 0
-5105 -5113 0
-5105 -5114 0
-5105 -5115 0
-5105 -5116 0
-5105 -5117 0
-5106 -5107 0
-5106 -5108 0
-5106 -5109 0
-5106 -5110 0
-5106 -5111 0
-5106 -5112 0
-5106 -5113 0
-5106 -5114 0
-5106 -5115 0
-5106 -5116 0
-5106 -5117 0
-5107 -5108 0
-5107 -5109 0
-5107 -5110 0
-5107 -5111 0
-5107 -5112 0
-5107 -5113 0
-5107 -5114 0
-5107 -5115 0
-5107 -5116 0
-5107 -5117 0
-5108 -5109 0
-5108 -5110 0
-5108 -5111 0
-5108 -5112 0
-5108 -5113 0
-5108 -5114 0
-5108 -5115 0
-5108 -5116 0
-5108 -5117 0
-5109 -5110 0
-5109 -5111 0
-5109 -5112 0
-5109 -5113 0
-5109 -5114 0
-5109 -5115 0
-5109 -5116 0
-5109 -5117 0
-5110 -5111 0
-5110 -5112 0
-5110 -5113 0
-5110 -5114 0
-5110 -5115 0
-5110 -5116 0
-5110 -5117 0
-5111 -5112 0
-5111 -5113 0
-5111 -5114 0
-5111 -5115 0
-5111 -5116 0
-5111 -5117 0
-5112 -5113 0
-5112 -5114 0
-5112 -5115 0
-5112 -5116 0
-5112 -5117 0
-5113 -5114 0
-5113 -5115 0
-5113 -5116 0
-5113 -5117 0
-5114 -5115 0
-5114 -5116 0
-5114 -5117 0
-5115 -5116 0
-5115 -5117 0
-5116 -5117 0
